p cnf 332 849
34 0
-36 -99 0
-35 36 -99 0
35 36 99 0
-37 -100 0
37 99 -100 0
37 -99 100 0
-38 -101 0
38 100 -101 0
38 -100 101 0
-39 101 -102 0
-39 -101 102 0
39 102 0
-40 -103 0
40 102 -103 0
40 -102 103 0
-41 -104 0
41 103 -104 0
41 -103 104 0
-42 -105 0
42 104 -105 0
42 -104 105 0
-43 -106 0
43 105 -106 0
43 -105 106 0
-44 -107 0
44 106 -107 0
44 -106 107 0
-45 -108 0
45 107 -108 0
45 -107 108 0
-46 -109 0
46 108 -109 0
46 -108 109 0
-47 -110 0
47 109 -110 0
47 -109 110 0
-48 -111 0
48 110 -111 0
48 -110 111 0
-49 -112 0
49 111 -112 0
49 -111 112 0
-50 -113 0
50 112 -113 0
50 -112 113 0
-51 -114 0
51 113 -114 0
51 -113 114 0
-52 -115 0
52 114 -115 0
52 -114 115 0
-53 -116 0
53 115 -116 0
53 -115 116 0
-54 -117 0
54 116 -117 0
54 -116 117 0
-55 -118 0
55 117 -118 0
55 -117 118 0
-56 -119 0
56 118 -119 0
56 -118 119 0
-57 -120 0
57 119 -120 0
57 -119 120 0
-58 -121 0
58 120 -121 0
58 -120 121 0
-59 -122 0
59 121 -122 0
59 -121 122 0
-60 -123 0
60 122 -123 0
60 -122 123 0
-61 -124 0
61 123 -124 0
61 -123 124 0
-62 -125 0
62 124 -125 0
62 -124 125 0
-63 -126 0
63 125 -126 0
63 -125 126 0
-64 -127 0
64 126 -127 0
64 -126 127 0
-65 -128 0
65 127 -128 0
65 -127 128 0
-66 -129 0
66 128 -129 0
66 -128 129 0
66 -129 -130 0
-66 129 -130 0
66 129 130 0
-66 -129 130 0
-35 -131 0
-36 -131 0
-37 -131 0
-38 -131 0
39 -131 0
-40 -131 0
-41 -131 0
-42 -131 0
-43 -131 0
-44 -131 0
-45 -131 0
-46 -131 0
-47 -131 0
-48 -131 0
-49 -131 0
-50 -131 0
-51 -131 0
-52 -131 0
-53 -131 0
-54 -131 0
-55 -131 0
-56 -131 0
-57 -131 0
-58 -131 0
-59 -131 0
-60 -131 0
-61 -131 0
-62 -131 0
-63 -131 0
-64 -131 0
-65 -131 0
-66 -131 0
35 36 37 38 -39 40 41 42 43 44 45 46 47 48 49 50 51 52 53 54 55 56 57 58 59 60 61 62 63 64 65 66 131 0
-130 132 0
-131 132 0
130 131 -132 0
-33 132 -133 0
33 -132 -133 0
-33 -132 133 0
33 132 133 0
-133 0
67 -134 0
35 -134 0
-35 -67 134 0
-35 -67 -135 0
35 67 -135 0
35 -67 135 0
-35 67 135 0
-36 -68 136 0
-68 -134 136 0
-36 -134 136 0
36 68 -136 0
68 134 -136 0
36 134 -136 0
68 -136 -137 0
36 -136 -137 0
134 -136 -137 0
-68 136 137 0
-36 136 137 0
-134 136 137 0
-36 -68 -134 137 0
36 68 134 -137 0
-37 -69 138 0
-69 -136 138 0
-37 -136 138 0
37 69 -138 0
69 136 -138 0
37 136 -138 0
69 -138 -139 0
37 -138 -139 0
136 -138 -139 0
-69 138 139 0
-37 138 139 0
-136 138 139 0
-37 -69 -136 139 0
37 69 136 -139 0
-38 -70 140 0
-70 -138 140 0
-38 -138 140 0
38 70 -140 0
70 138 -140 0
38 138 -140 0
70 -140 -141 0
38 -140 -141 0
138 -140 -141 0
-70 140 141 0
-38 140 141 0
-138 140 141 0
-38 -70 -138 141 0
38 70 138 -141 0
-39 -71 142 0
-71 -140 142 0
-39 -140 142 0
39 71 -142 0
71 140 -142 0
39 140 -142 0
71 -142 -143 0
39 -142 -143 0
140 -142 -143 0
-71 142 143 0
-39 142 143 0
-140 142 143 0
-39 -71 -140 143 0
39 71 140 -143 0
-40 -72 144 0
-72 -142 144 0
-40 -142 144 0
40 72 -144 0
72 142 -144 0
40 142 -144 0
72 -144 -145 0
40 -144 -145 0
142 -144 -145 0
-72 144 145 0
-40 144 145 0
-142 144 145 0
-40 -72 -142 145 0
40 72 142 -145 0
-41 -73 146 0
-73 -144 146 0
-41 -144 146 0
41 73 -146 0
73 144 -146 0
41 144 -146 0
73 -146 -147 0
41 -146 -147 0
144 -146 -147 0
-73 146 147 0
-41 146 147 0
-144 146 147 0
-41 -73 -144 147 0
41 73 144 -147 0
-42 -74 148 0
-74 -146 148 0
-42 -146 148 0
42 74 -148 0
74 146 -148 0
42 146 -148 0
74 -148 -149 0
42 -148 -149 0
146 -148 -149 0
-74 148 149 0
-42 148 149 0
-146 148 149 0
-42 -74 -146 149 0
42 74 146 -149 0
-43 -75 150 0
-75 -148 150 0
-43 -148 150 0
43 75 -150 0
75 148 -150 0
43 148 -150 0
75 -150 -151 0
43 -150 -151 0
148 -150 -151 0
-75 150 151 0
-43 150 151 0
-148 150 151 0
-43 -75 -148 151 0
43 75 148 -151 0
-44 -76 152 0
-76 -150 152 0
-44 -150 152 0
44 76 -152 0
76 150 -152 0
44 150 -152 0
76 -152 -153 0
44 -152 -153 0
150 -152 -153 0
-76 152 153 0
-44 152 153 0
-150 152 153 0
-44 -76 -150 153 0
44 76 150 -153 0
-45 -77 154 0
-77 -152 154 0
-45 -152 154 0
45 77 -154 0
77 152 -154 0
45 152 -154 0
77 -154 -155 0
45 -154 -155 0
152 -154 -155 0
-77 154 155 0
-45 154 155 0
-152 154 155 0
-45 -77 -152 155 0
45 77 152 -155 0
-46 -78 156 0
-78 -154 156 0
-46 -154 156 0
46 78 -156 0
78 154 -156 0
46 154 -156 0
78 -156 -157 0
46 -156 -157 0
154 -156 -157 0
-78 156 157 0
-46 156 157 0
-154 156 157 0
-46 -78 -154 157 0
46 78 154 -157 0
-47 -79 158 0
-79 -156 158 0
-47 -156 158 0
47 79 -158 0
79 156 -158 0
47 156 -158 0
79 -158 -159 0
47 -158 -159 0
156 -158 -159 0
-79 158 159 0
-47 158 159 0
-156 158 159 0
-47 -79 -156 159 0
47 79 156 -159 0
-48 -80 160 0
-80 -158 160 0
-48 -158 160 0
48 80 -160 0
80 158 -160 0
48 158 -160 0
80 -160 -161 0
48 -160 -161 0
158 -160 -161 0
-80 160 161 0
-48 160 161 0
-158 160 161 0
-48 -80 -158 161 0
48 80 158 -161 0
-49 -81 162 0
-81 -160 162 0
-49 -160 162 0
49 81 -162 0
81 160 -162 0
49 160 -162 0
81 -162 -163 0
49 -162 -163 0
160 -162 -163 0
-81 162 163 0
-49 162 163 0
-160 162 163 0
-49 -81 -160 163 0
49 81 160 -163 0
-50 -82 164 0
-82 -162 164 0
-50 -162 164 0
50 82 -164 0
82 162 -164 0
50 162 -164 0
82 -164 -165 0
50 -164 -165 0
162 -164 -165 0
-82 164 165 0
-50 164 165 0
-162 164 165 0
-50 -82 -162 165 0
50 82 162 -165 0
-51 -83 166 0
-83 -164 166 0
-51 -164 166 0
51 83 -166 0
83 164 -166 0
51 164 -166 0
83 -166 -167 0
51 -166 -167 0
164 -166 -167 0
-83 166 167 0
-51 166 167 0
-164 166 167 0
-51 -83 -164 167 0
51 83 164 -167 0
-52 -84 168 0
-84 -166 168 0
-52 -166 168 0
52 84 -168 0
84 166 -168 0
52 166 -168 0
84 -168 -169 0
52 -168 -169 0
166 -168 -169 0
-84 168 169 0
-52 168 169 0
-166 168 169 0
-52 -84 -166 169 0
52 84 166 -169 0
-53 -85 170 0
-85 -168 170 0
-53 -168 170 0
53 85 -170 0
85 168 -170 0
53 168 -170 0
85 -170 -171 0
53 -170 -171 0
168 -170 -171 0
-85 170 171 0
-53 170 171 0
-168 170 171 0
-53 -85 -168 171 0
53 85 168 -171 0
-54 -86 172 0
-86 -170 172 0
-54 -170 172 0
54 86 -172 0
86 170 -172 0
54 170 -172 0
86 -172 -173 0
54 -172 -173 0
170 -172 -173 0
-86 172 173 0
-54 172 173 0
-170 172 173 0
-54 -86 -170 173 0
54 86 170 -173 0
-55 -87 174 0
-87 -172 174 0
-55 -172 174 0
55 87 -174 0
87 172 -174 0
55 172 -174 0
87 -174 -175 0
55 -174 -175 0
172 -174 -175 0
-87 174 175 0
-55 174 175 0
-172 174 175 0
-55 -87 -172 175 0
55 87 172 -175 0
-56 -88 176 0
-88 -174 176 0
-56 -174 176 0
56 88 -176 0
88 174 -176 0
56 174 -176 0
88 -176 -177 0
56 -176 -177 0
174 -176 -177 0
-88 176 177 0
-56 176 177 0
-174 176 177 0
-56 -88 -174 177 0
56 88 174 -177 0
-57 -89 178 0
-89 -176 178 0
-57 -176 178 0
57 89 -178 0
89 176 -178 0
57 176 -178 0
89 -178 -179 0
57 -178 -179 0
176 -178 -179 0
-89 178 179 0
-57 178 179 0
-176 178 179 0
-57 -89 -176 179 0
57 89 176 -179 0
-58 -90 180 0
-90 -178 180 0
-58 -178 180 0
58 90 -180 0
90 178 -180 0
58 178 -180 0
90 -180 -181 0
58 -180 -181 0
178 -180 -181 0
-90 180 181 0
-58 180 181 0
-178 180 181 0
-58 -90 -178 181 0
58 90 178 -181 0
-59 -91 182 0
-91 -180 182 0
-59 -180 182 0
59 91 -182 0
91 180 -182 0
59 180 -182 0
91 -182 -183 0
59 -182 -183 0
180 -182 -183 0
-91 182 183 0
-59 182 183 0
-180 182 183 0
-59 -91 -180 183 0
59 91 180 -183 0
-60 -92 184 0
-92 -182 184 0
-60 -182 184 0
60 92 -184 0
92 182 -184 0
60 182 -184 0
92 -184 -185 0
60 -184 -185 0
182 -184 -185 0
-92 184 185 0
-60 184 185 0
-182 184 185 0
-60 -92 -182 185 0
60 92 182 -185 0
-61 -93 186 0
-93 -184 186 0
-61 -184 186 0
61 93 -186 0
93 184 -186 0
61 184 -186 0
93 -186 -187 0
61 -186 -187 0
184 -186 -187 0
-93 186 187 0
-61 186 187 0
-184 186 187 0
-61 -93 -184 187 0
61 93 184 -187 0
-62 -94 188 0
-94 -186 188 0
-62 -186 188 0
62 94 -188 0
94 186 -188 0
62 186 -188 0
94 -188 -189 0
62 -188 -189 0
186 -188 -189 0
-94 188 189 0
-62 188 189 0
-186 188 189 0
-62 -94 -186 189 0
62 94 186 -189 0
-63 -95 190 0
-95 -188 190 0
-63 -188 190 0
63 95 -190 0
95 188 -190 0
63 188 -190 0
95 -190 -191 0
63 -190 -191 0
188 -190 -191 0
-95 190 191 0
-63 190 191 0
-188 190 191 0
-63 -95 -188 191 0
63 95 188 -191 0
-64 -96 192 0
-96 -190 192 0
-64 -190 192 0
64 96 -192 0
96 190 -192 0
64 190 -192 0
96 -192 -193 0
64 -192 -193 0
190 -192 -193 0
-96 192 193 0
-64 192 193 0
-190 192 193 0
-64 -96 -190 193 0
64 96 190 -193 0
-65 -97 194 0
-97 -192 194 0
-65 -192 194 0
65 97 -194 0
97 192 -194 0
65 192 -194 0
97 -194 -195 0
65 -194 -195 0
192 -194 -195 0
-97 194 195 0
-65 194 195 0
-192 194 195 0
-65 -97 -192 195 0
65 97 192 -195 0
-66 -98 196 0
-98 -194 196 0
-66 -194 196 0
66 98 -196 0
98 194 -196 0
66 194 -196 0
98 -196 -197 0
66 -196 -197 0
194 -196 -197 0
-98 196 197 0
-66 196 197 0
-194 196 197 0
-66 -98 -194 197 0
66 98 194 -197 0
33 -67 1 0
33 67 -1 0
-33 -135 1 0
-33 135 -1 0
33 -68 2 0
33 68 -2 0
-33 -137 2 0
-33 137 -2 0
33 -69 3 0
33 69 -3 0
-33 -139 3 0
-33 139 -3 0
33 -70 4 0
33 70 -4 0
-33 -141 4 0
-33 141 -4 0
33 -71 5 0
33 71 -5 0
-33 -143 5 0
-33 143 -5 0
33 -72 6 0
33 72 -6 0
-33 -145 6 0
-33 145 -6 0
33 -73 7 0
33 73 -7 0
-33 -147 7 0
-33 147 -7 0
33 -74 8 0
33 74 -8 0
-33 -149 8 0
-33 149 -8 0
33 -75 9 0
33 75 -9 0
-33 -151 9 0
-33 151 -9 0
33 -76 10 0
33 76 -10 0
-33 -153 10 0
-33 153 -10 0
33 -77 11 0
33 77 -11 0
-33 -155 11 0
-33 155 -11 0
33 -78 12 0
33 78 -12 0
-33 -157 12 0
-33 157 -12 0
33 -79 13 0
33 79 -13 0
-33 -159 13 0
-33 159 -13 0
33 -80 14 0
33 80 -14 0
-33 -161 14 0
-33 161 -14 0
33 -81 15 0
33 81 -15 0
-33 -163 15 0
-33 163 -15 0
33 -82 16 0
33 82 -16 0
-33 -165 16 0
-33 165 -16 0
33 -83 17 0
33 83 -17 0
-33 -167 17 0
-33 167 -17 0
33 -84 18 0
33 84 -18 0
-33 -169 18 0
-33 169 -18 0
33 -85 19 0
33 85 -19 0
-33 -171 19 0
-33 171 -19 0
33 -86 20 0
33 86 -20 0
-33 -173 20 0
-33 173 -20 0
33 -87 21 0
33 87 -21 0
-33 -175 21 0
-33 175 -21 0
33 -88 22 0
33 88 -22 0
-33 -177 22 0
-33 177 -22 0
33 -89 23 0
33 89 -23 0
-33 -179 23 0
-33 179 -23 0
33 -90 24 0
33 90 -24 0
-33 -181 24 0
-33 181 -24 0
33 -91 25 0
33 91 -25 0
-33 -183 25 0
-33 183 -25 0
33 -92 26 0
33 92 -26 0
-33 -185 26 0
-33 185 -26 0
33 -93 27 0
33 93 -27 0
-33 -187 27 0
-33 187 -27 0
33 -94 28 0
33 94 -28 0
-33 -189 28 0
-33 189 -28 0
33 -95 29 0
33 95 -29 0
-33 -191 29 0
-33 191 -29 0
33 -96 30 0
33 96 -30 0
-33 -193 30 0
-33 193 -30 0
33 -97 31 0
33 97 -31 0
-33 -195 31 0
-33 195 -31 0
33 -98 32 0
33 98 -32 0
-33 -197 32 0
-33 197 -32 0
35 -262 0
-35 262 0
36 -263 0
-36 263 0
37 -264 0
-37 264 0
38 -265 0
-38 265 0
39 -266 0
-39 266 0
40 -267 0
-40 267 0
41 -268 0
-41 268 0
42 -269 0
-42 269 0
43 -270 0
-43 270 0
44 -271 0
-44 271 0
45 -272 0
-45 272 0
46 -273 0
-46 273 0
47 -274 0
-47 274 0
48 -275 0
-48 275 0
49 -276 0
-49 276 0
50 -277 0
-50 277 0
51 -278 0
-51 278 0
52 -279 0
-52 279 0
53 -280 0
-53 280 0
54 -281 0
-54 281 0
55 -282 0
-55 282 0
56 -283 0
-56 283 0
57 -284 0
-57 284 0
58 -285 0
-58 285 0
59 -286 0
-59 286 0
60 -287 0
-60 287 0
61 -288 0
-61 288 0
62 -289 0
-62 289 0
63 -290 0
-63 290 0
64 -291 0
-64 291 0
65 -292 0
-65 292 0
66 -293 0
-66 293 0
67 -294 0
-67 294 0
68 -295 0
-68 295 0
69 -296 0
-69 296 0
70 -297 0
-70 297 0
71 -298 0
-71 298 0
72 -299 0
-72 299 0
73 -300 0
-73 300 0
74 -301 0
-74 301 0
75 -302 0
-75 302 0
76 -303 0
-76 303 0
77 -304 0
-77 304 0
78 -305 0
-78 305 0
79 -306 0
-79 306 0
80 -307 0
-80 307 0
81 -308 0
-81 308 0
82 -309 0
-82 309 0
83 -310 0
-83 310 0
84 -311 0
-84 311 0
85 -312 0
-85 312 0
86 -313 0
-86 313 0
87 -314 0
-87 314 0
88 -315 0
-88 315 0
89 -316 0
-89 316 0
90 -317 0
-90 317 0
91 -318 0
-91 318 0
92 -319 0
-92 319 0
93 -320 0
-93 320 0
94 -321 0
-94 321 0
95 -322 0
-95 322 0
96 -323 0
-96 323 0
97 -324 0
-97 324 0
98 -325 0
-98 325 0
-326 -328 -330 0
326 328 -330 0
-326 328 330 0
326 -328 330 0
-327 -329 -331 0
327 329 -331 0
-327 329 331 0
327 -329 331 0
-330 -332 0
-331 -332 0
330 331 332 0
-34 332 0
34 -332 0
c __CPROVER_malloc_is_new_array#1 FALSE
c goto_symex::\guard#1 33
c symex::io::1 294 295 296 297 298 299 300 301 302 303 304 305 306 307 308 309 310 311 312 313 314 315 316 317 318 319 320 321 322 323 324 325
c checked_copy::1::v!0@1#5 1 2 3 4 5 6 7 8 9 10 11 12 13 14 15 16 17 18 19 20 21 22 23 24 25 26 27 28 29 30 31 32
c checked_copy::1::v!0@1#3 198 199 200 201 202 203 204 205 206 207 208 209 210 211 212 213 214 215 216 217 218 219 220 221 222 223 224 225 226 227 228 229
c symex::io::0 262 263 264 265 266 267 268 269 270 271 272 273 274 275 276 277 278 279 280 281 282 283 284 285 286 287 288 289 290 291 292 293
c _start::base!0#1 67 68 69 70 71 72 73 74 75 76 77 78 79 80 81 82 83 84 85 86 87 88 89 90 91 92 93 94 95 96 97 98
c checked_copy::i!0@1#1 35 36 37 38 39 40 41 42 43 44 45 46 47 48 49 50 51 52 53 54 55 56 57 58 59 60 61 62 63 64 65 66
c checked_copy::base!0@1#1 67 68 69 70 71 72 73 74 75 76 77 78 79 80 81 82 83 84 85 86 87 88 89 90 91 92 93 94 95 96 97 98
c __CPROVER_malloc_object#1 FALSE FALSE FALSE FALSE FALSE FALSE FALSE FALSE FALSE FALSE FALSE FALSE FALSE FALSE FALSE FALSE FALSE FALSE FALSE FALSE FALSE FALSE FALSE FALSE FALSE FALSE FALSE FALSE FALSE FALSE FALSE FALSE
c _start::i!0#1 35 36 37 38 39 40 41 42 43 44 45 46 47 48 49 50 51 52 53 54 55 56 57 58 59 60 61 62 63 64 65 66
c __CPROVER_deallocated#1 FALSE FALSE FALSE FALSE FALSE FALSE FALSE FALSE FALSE FALSE FALSE FALSE FALSE FALSE FALSE FALSE FALSE FALSE FALSE FALSE FALSE FALSE FALSE FALSE FALSE FALSE FALSE FALSE FALSE FALSE FALSE FALSE
c checked_copy::1::__return_value!0@1#1 230 231 232 233 234 235 236 237 238 239 240 241 242 243 244 245 246 247 248 249 250 251 252 253 254 255 256 257 258 259 260 261
c __CPROVER_malloc_size#1 FALSE FALSE FALSE FALSE FALSE FALSE FALSE FALSE FALSE FALSE FALSE FALSE FALSE FALSE FALSE FALSE FALSE FALSE FALSE FALSE FALSE FALSE FALSE FALSE FALSE FALSE FALSE FALSE FALSE FALSE FALSE FALSE
c __CPROVER_dead_object#1 FALSE FALSE FALSE FALSE FALSE FALSE FALSE FALSE FALSE FALSE FALSE FALSE FALSE FALSE FALSE FALSE FALSE FALSE FALSE FALSE FALSE FALSE FALSE FALSE FALSE FALSE FALSE FALSE FALSE FALSE FALSE FALSE
c checked_copy::1::v!0@1#1 198 199 200 201 202 203 204 205 206 207 208 209 210 211 212 213 214 215 216 217 218 219 220 221 222 223 224 225 226 227 228 229
c __CPROVER_memory_leak#1 FALSE FALSE FALSE FALSE FALSE FALSE FALSE FALSE FALSE FALSE FALSE FALSE FALSE FALSE FALSE FALSE FALSE FALSE FALSE FALSE FALSE FALSE FALSE FALSE FALSE FALSE FALSE FALSE FALSE FALSE FALSE FALSE
c __CPROVER_next_thread_id#1 FALSE FALSE FALSE FALSE FALSE FALSE FALSE FALSE FALSE FALSE FALSE FALSE FALSE FALSE FALSE FALSE FALSE FALSE FALSE FALSE FALSE FALSE FALSE FALSE FALSE FALSE FALSE FALSE FALSE FALSE FALSE FALSE
c checked_copy::1::v!0@1#2 135 137 139 141 143 145 147 149 151 153 155 157 159 161 163 165 167 169 171 173 175 177 179 181 183 185 187 189 191 193 195 197
c __CPROVER_pipe_count#1 FALSE FALSE FALSE FALSE FALSE FALSE FALSE FALSE FALSE FALSE FALSE FALSE FALSE FALSE FALSE FALSE FALSE FALSE FALSE FALSE FALSE FALSE FALSE FALSE FALSE FALSE FALSE FALSE FALSE FALSE FALSE FALSE
c checked_copy::1::v!0@1#4 67 68 69 70 71 72 73 74 75 76 77 78 79 80 81 82 83 84 85 86 87 88 89 90 91 92 93 94 95 96 97 98
c __CPROVER_rounding_mode!0#1 FALSE FALSE FALSE FALSE FALSE FALSE FALSE FALSE FALSE FALSE FALSE FALSE FALSE FALSE FALSE FALSE FALSE FALSE FALSE FALSE FALSE FALSE FALSE FALSE FALSE FALSE FALSE FALSE FALSE FALSE FALSE FALSE
c checked_copy::1::__return_value!0@1#2 1 2 3 4 5 6 7 8 9 10 11 12 13 14 15 16 17 18 19 20 21 22 23 24 25 26 27 28 29 30 31 32
c __CPROVER_thread_id!0#1 FALSE FALSE FALSE FALSE FALSE FALSE FALSE FALSE FALSE FALSE FALSE FALSE FALSE FALSE FALSE FALSE FALSE FALSE FALSE FALSE FALSE FALSE FALSE FALSE FALSE FALSE FALSE FALSE FALSE FALSE FALSE FALSE
c ind 1 2 3 4 5 6 7 8 9 10 0
c ind 11 12 13 14 15 16 17 18 19 20 0
c ind 21 22 23 24 25 26 27 28 29 30 0
c ind 31 32 0
cr 1 2 3 4 5 6 7 8 9 10 11 12 13 14 15 16 17 18 19 20 21 22 23 24 25 26 27 28 29 30 31 32
